%%%mzn-stat: initTime=0.004631568
%%%mzn-stat: objective=533
%%%mzn-stat: nodes=3207
%%%mzn-stat: restarts=0
%%%mzn-stat: peakDepth=170
%%%mzn-stat: solveTime=0.299359379
%%%mzn-stat: variables=442
%%%mzn-stat: propagators=1499
%%%mzn-stat: failures=2091
%%%mzn-stat: propagations=802247
%%%mzn-stat: nogoods=2091
%%%mzn-stat: AverageConflictSize=11.413199426111909
%%%mzn-stat: NumUnitNogoodsLearned=532
%%%mzn-stat: AverageLearnedNogoodLength=11.233381157340984
%%%mzn-stat: AverageBacktrackAmount=0
%%%mzn-stat: AverageLbd=4.988522238163558
%%%mzn-stat-end
maxleg = 533;
succ = array1d(1..50,[16, 25, 46, 5, 32, 15, 38, 42, 29, 37, 27, 43, 48, 40, 2, 24, 8, 50, 33, 22, 10, 45, 13, 41, 4, 36, 17, 6, 49, 1, 26, 12, 30, 7, 34, 11, 23, 31, 19, 20, 9, 28, 39, 35, 44, 18, 14, 47, 3, 21]);
% time elapsed: 1.01 s
----------
==========
% time elapsed: 1.01 s
%%%mzn-stat: initTime=0.004631568
%%%mzn-stat: objective=533
%%%mzn-stat: nodes=3207
%%%mzn-stat: restarts=0
%%%mzn-stat: peakDepth=170
%%%mzn-stat: solveTime=0.29936218
%%%mzn-stat: variables=442
%%%mzn-stat: propagators=1499
%%%mzn-stat: failures=2091
%%%mzn-stat: propagations=802247
%%%mzn-stat: nogoods=2091
%%%mzn-stat: AverageConflictSize=11.413199426111909
%%%mzn-stat: NumUnitNogoodsLearned=532
%%%mzn-stat: AverageLearnedNogoodLength=11.233381157340984
%%%mzn-stat: AverageBacktrackAmount=0
%%%mzn-stat: AverageLbd=4.988522238163558
%%%mzn-stat-end
